c WARNING: for repeatability, setting FPU to use double precision
d VARIABLES            26911        
d CONSTRAINTS          88914        
c ============================[ Problem Statistics ]=============================
c |                                                                             |
c |  Number of variables:         26911                                         |
c |  Number of clauses:           88914                                         |
c |  Parse time:                   0.01 s                                       |
c |                                                                             |
c ============================[ Search Statistics ]==============================
c | Conflicts |          ORIGINAL         |          LEARNT          | Progress |
c |           |    Vars  Clauses Literals |    Limit  Clauses Lit/Cl |          |
c ===============================================================================
c |       100 |   16718    61720   155478 |    22630      100     41 | 37.877 % |
c |       250 |   16718    61720   155478 |    24893      250     24 | 37.877 % |
c |       475 |   16718    61720   155478 |    27383      475     39 | 37.877 % |
c |       812 |   16718    61720   155478 |    30121      812     40 | 37.877 % |
c |      1318 |   16718    61720   155478 |    33133     1318     54 | 37.877 % |
c |      2077 |   16718    61720   155478 |    36446     2077     56 | 37.877 % |
c |      3216 |   16715    61709   155451 |    40091     3215     62 | 37.888 % |
c |      4924 |   16715    61709   155451 |    44100     4923     62 | 37.888 % |
c |      7486 |   16715    61709   155451 |    48510     7485     71 | 37.888 % |
c |     11330 |   16715    61709   155451 |    53361    11329     75 | 37.888 % |
c |     17096 |   16715    61709   155451 |    58698    17095     76 | 37.888 % |
c |     25745 |   16715    61709   155451 |    64567    25744     82 | 37.888 % |
c |     38719 |   16715    61709   155451 |    71024    38718     85 | 37.888 % |
c |     58180 |   16715    61709   155451 |    78127    58179     76 | 37.888 % |
c |     87372 |   16715    61709   155451 |    85939    87371     73 | 37.888 % |
c |    131161 |   16715    61709   155451 |    94533    51414     56 | 37.888 % |
c |    196845 |   16715    61709   155451 |   103987    30651     46 | 37.888 % |
c |    295371 |   16715    61709   155451 |   114386    36558     39 | 37.888 % |
c ===============================================================================
c restarts              : 924
c conflicts             : 385951         (5678 /sec)
c decisions             : 611521         (0.00 % random) (8997 /sec)
c propagations          : 281409746      (4140312 /sec)
c conflict literals     : 20478212       (50.94 % deleted)
d RESTARTS             924
d FAILURES             385951       
d NODES                611521       
d BACKTRACKS           611521       
d PROPAGATIONS         281409746    
d NOGOODSIZE           53.06 
d MEMORY               78.00 
d TIME                 67.9682 

s UNSATISFIABLE
